NAME          ClpDefau  FREE
ROWS
 N  OBJROW
 L  ZMUNI1_PCT
 L  ZMUNI2_PCT
 L  ZMUNI3_PCT
 L  ZMUNI4_PCT
 L  ZMUNI5_PCT
 L  ZMUNI6_PCT
 L  ZMUNI7_PCT
 L  ZMUNI8_PCT
 L  ZMUNI9_PCT
COLUMNS
    QMUNI1 OBJROW 1.          
    QMUNI1 ZMUNI1_PCT 29494.6671  
    QMUNI1 ZMUNI2_PCT 2558.8989   
    QMUNI1 ZMUNI3_PCT 5037.3077   
    QMUNI1 ZMUNI4_PCT 3790.37857  
    QMUNI1 ZMUNI5_PCT 1110.2676   
    QMUNI1 ZMUNI6_PCT 1271.0571   
    QMUNI1 ZMUNI7_PCT 2971.8399   
    QMUNI1 ZMUNI8_PCT 2618.4082   
    QMUNI1 ZMUNI9_PCT 1937.1033   
    QMUNI2 OBJROW 1.          
    QMUNI2 ZMUNI1_PCT 2257.9193   
    QMUNI2 ZMUNI2_PCT 34428.4057  
    QMUNI2 ZMUNI3_PCT 3070.8313   
    QMUNI2 ZMUNI4_PCT 3140.831    
    QMUNI2 ZMUNI5_PCT 849.533     
    QMUNI2 ZMUNI6_PCT 874.1379    
    QMUNI2 ZMUNI7_PCT 1874.7329   
    QMUNI2 ZMUNI8_PCT 2087.5931   
    QMUNI2 ZMUNI9_PCT 2096.7483   
    QMUNI3 OBJROW 1.          
    QMUNI3 ZMUNI1_PCT 4239.0823   
    QMUNI3 ZMUNI2_PCT 2707.0999   
    QMUNI3 ZMUNI3_PCT 30239.2959  
    QMUNI3 ZMUNI4_PCT 5122.75696  
    QMUNI3 ZMUNI5_PCT 340.4617    
    QMUNI3 ZMUNI6_PCT 443.4585    
    QMUNI3 ZMUNI7_PCT 1605.2246   
    QMUNI3 ZMUNI8_PCT 1506.4239   
    QMUNI3 ZMUNI9_PCT 844.0018    
    QMUNI4 OBJROW 1.          
    QMUNI4 ZMUNI1_PCT 3765.1062   
    QMUNI4 ZMUNI2_PCT 3446.0067   
    QMUNI4 ZMUNI3_PCT 5923.0804   
    QMUNI4 ZMUNI4_PCT 105460.78682
    QMUNI4 ZMUNI5_PCT 1004.7912   
    QMUNI4 ZMUNI6_PCT 1053.0472   
    QMUNI4 ZMUNI7_PCT 2213.4781   
    QMUNI4 ZMUNI8_PCT 2152.8244   
    QMUNI4 ZMUNI9_PCT 1668.3578   
    QMUNI5 OBJROW 1.          
    QMUNI5 ZMUNI1_PCT 361.4426    
    QMUNI5 ZMUNI2_PCT 248.5275    
    QMUNI5 ZMUNI3_PCT 311.2793    
    QMUNI5 ZMUNI4_PCT 254.91715   
    QMUNI5 ZMUNI5_PCT 34784.6984  
    QMUNI5 ZMUNI6_PCT 3035.5453   
    QMUNI5 ZMUNI7_PCT 621.4142    
    QMUNI5 ZMUNI8_PCT 472.0688    
    QMUNI5 ZMUNI9_PCT 428.1998    
    QMUNI6 OBJROW 1.          
    QMUNI6 ZMUNI1_PCT 788.8794    
    QMUNI6 ZMUNI2_PCT 635.1471    
    QMUNI6 ZMUNI3_PCT 735.4736    
    QMUNI6 ZMUNI4_PCT 629.32968   
    QMUNI6 ZMUNI5_PCT 3107.8338   
    QMUNI6 ZMUNI6_PCT 32502.7466  
    QMUNI6 ZMUNI7_PCT 1223.5641   
    QMUNI6 ZMUNI8_PCT 1072.1206   
    QMUNI6 ZMUNI9_PCT 1125.5264   
    QMUNI7 OBJROW 1.          
    QMUNI7 ZMUNI1_PCT 1719.6655   
    QMUNI7 ZMUNI2_PCT 1145.5536   
    QMUNI7 ZMUNI3_PCT 1558.6853   
    QMUNI7 ZMUNI4_PCT 1215.31487  
    QMUNI7 ZMUNI5_PCT 683.7844    
    QMUNI7 ZMUNI6_PCT 854.4922    
    QMUNI7 ZMUNI7_PCT 30302.2384  
    QMUNI7 ZMUNI8_PCT 2950.0961   
    QMUNI7 ZMUNI9_PCT 1473.2361   
    QMUNI8 OBJROW 1.          
    QMUNI8 ZMUNI1_PCT 1554.8706   
    QMUNI8 ZMUNI2_PCT 1437.5686   
    QMUNI8 ZMUNI3_PCT 1595.1156   
    QMUNI8 ZMUNI4_PCT 1302.05155  
    QMUNI8 ZMUNI5_PCT 350.1892    
    QMUNI8 ZMUNI6_PCT 448.4176    
    QMUNI8 ZMUNI7_PCT 2942.276    
    QMUNI8 ZMUNI8_PCT 28625.679   
    QMUNI8 ZMUNI9_PCT 2137.7563   
    QMUNI9 OBJROW 1.          
    QMUNI9 ZMUNI1_PCT 732.4219    
    QMUNI9 ZMUNI2_PCT 1001.5487   
    QMUNI9 ZMUNI3_PCT 825.119     
    QMUNI9 ZMUNI4_PCT 723.45734   
    QMUNI9 ZMUNI5_PCT 595.8557    
    QMUNI9 ZMUNI6_PCT 555.4199    
    QMUNI9 ZMUNI7_PCT 983.4289    
    QMUNI9 ZMUNI8_PCT 1429.7485   
    QMUNI9 ZMUNI9_PCT 26599.6933  
RHS
    RHS ZMUNI1_PCT 1.3079180314
    RHS ZMUNI2_PCT 0.3569145429
    RHS ZMUNI3_PCT 0.2698674005
    RHS ZMUNI4_PCT  -0.52872106
    RHS ZMUNI5_PCT  -0.1635562 
    RHS ZMUNI6_PCT 0.368650317 
    RHS ZMUNI7_PCT  -0.47280635
    RHS ZMUNI8_PCT  -0.55355778
    RHS ZMUNI9_PCT  -0.57569485
BOUNDS
 LO BOUND QMUNI1 -0.000887611
 UP BOUND QMUNI1      1.1e+10
 LO BOUND QMUNI2 -0.000633531
 UP BOUND QMUNI2      1.1e+10
 LO BOUND QMUNI3 -0.000684354
 UP BOUND QMUNI3      1.1e+10
 LO BOUND QMUNI4 -0.00027256 
 UP BOUND QMUNI4      1.1e+10
 LO BOUND QMUNI5 -0.000491677
 UP BOUND QMUNI5      1.1e+10
 LO BOUND QMUNI6 -0.000648766
 UP BOUND QMUNI6      1.1e+10
 LO BOUND QMUNI7 -0.000316461
 UP BOUND QMUNI7      1.1e+10
 LO BOUND QMUNI8 -0.000431752
 UP BOUND QMUNI8      1.1e+10
 LO BOUND QMUNI9 -0.000481472
 UP BOUND QMUNI9      1.1e+10
ENDATA
